Minimize
  - 12 y_0 - 37 y_1 - 15 y_2 - 38 y_3 - 31 y_4 - 10 y_5 - 38 y_7 - 27 y_8
   - 34 y_9 + 52 x_0_2 + 97 x_0_3 + 85 x_0_4 + 28 x_0_5 + 78 x_0_8
   + 10 x_1_3 + 75 x_1_6 + 61 x_1_8 + 61 x_1_9 + 68 x_2_3 + 70 x_2_7
   + 25 x_2_8 + 82 x_2_9 + 25 x_3_4 + 4 x_3_7 + 53 x_3_9 + 62 x_4_6
   + 44 x_4_8 + 92 x_5_7 + 54 x_5_8 + 88 x_5_9 + 76 x_6_7 + 55 x_6_8
   + 242 Constant
Subject To
 c_0: y_1 = 1
 c_1_0: y_0 >= 1
 c_1_1: y_1 >= 1
 c_1_2: y_2 >= 1
 c_1_3: y_3 + y_7 >= 1
 c_1_4: y_4 >= 1
 c_1_5: y_5 >= 1
 c_1_6: y_6 >= 1
 c_1_7: y_3 + y_7 >= 1
 c_1_8: y_8 >= 1
 c_1_9: y_9 >= 1
 c_2_0: - 2 y_0 + x_0_2 + x_0_3 + x_0_4 + x_0_5 + x_0_8 = 0
 c_2_1: - 2 y_1 + x_1_3 + x_1_6 + x_1_8 + x_1_9 = 0
 c_2_2: - 2 y_2 + x_0_2 + x_2_3 + x_2_7 + x_2_8 + x_2_9 = 0
 c_2_3: - 2 y_3 + x_0_3 + x_1_3 + x_2_3 + x_3_4 + x_3_7 + x_3_9 = 0
 c_2_4: - 2 y_4 + x_0_4 + x_3_4 + x_4_6 + x_4_8 = 0
 c_2_5: - 2 y_5 + x_0_5 + x_5_7 + x_5_8 + x_5_9 = 0
 c_2_6: - 2 y_6 + x_1_6 + x_4_6 + x_6_7 + x_6_8 = 0
 c_2_7: - 2 y_7 + x_2_7 + x_3_7 + x_5_7 + x_6_7 = 0
 c_2_8: - 2 y_8 + x_0_8 + x_1_8 + x_2_8 + x_4_8 + x_5_8 + x_6_8 = 0
 c_2_9: - 2 y_9 + x_1_9 + x_2_9 + x_3_9 + x_5_9 = 0
Bounds
 Constant = 1
Binaries
 y_0 y_1 y_2 y_3 y_4 y_5 y_6 y_7 y_8 y_9 x_0_2 x_0_3 x_0_4 x_0_5 x_0_8
 x_1_3 x_1_6 x_1_8 x_1_9 x_2_3 x_2_7 x_2_8 x_2_9 x_3_4 x_3_7 x_3_9 x_4_6
 x_4_8 x_5_7 x_5_8 x_5_9 x_6_7 x_6_8
End
